-24 -11 46 -34 0
40 24 -38 -34 0
46 48 -11 -40 -8 24 -34 -34 0
46 -11 24 -38 -34 -34 0
-34 0
-24 34 -11 46 34 0
8 48 -11 -40 34 0
34 12 46 18 -13 -40 34 0
34 46 -11 -40 24 -38 34 0
34 46 -11 24 -38 34 0
34 0
0
